NAME 
ROWS
 N  OBJ
 L  R0      
 L  R1      
 E  R2      
COLUMNS
    MARKER    'MARKER'                 'INTORG'
    I0(3)     OBJ       -566
    I0(3)     R0        -62
    I0(3)     R1        -664
    I0(3)     R2        557
    I1(3)     OBJ       -611
    I1(3)     R0        -84
    I1(3)     R1        -982
    I1(3)     R2        898
    I2(3)     OBJ       -506
    I2(3)     R0        -977
    I2(3)     R1        -962
    I2(3)     R2        148
    I3(3)     OBJ       -180
    I3(3)     R0        -979
    I3(3)     R1        -140
    I3(3)     R2        63
    I4(3)     OBJ       -817
    I4(3)     R0        -874
    I4(3)     R1        -224
    I4(3)     R2        78
    I5(3)     OBJ       -184
    I5(3)     R0        -54
    I5(3)     R1        -215
    I5(3)     R2        964
    I6(3)     OBJ       -585
    I6(3)     R0        -269
    I6(3)     R1        -12
    I6(3)     R2        246
    I7(3)     OBJ       -423
    I7(3)     R0        -93
    I7(3)     R1        -869
    I7(3)     R2        662
    I8(3)     OBJ       -26
    I8(3)     R0        -881
    I8(3)     R1        -332
    I8(3)     R2        386
    I9(3)     OBJ       -317
    I9(3)     R0        -563
    I9(3)     R1        -537
    I9(3)     R2        272
    I10(1)    R2        1
    MARKER    'MARKER'                 'INTEND'
RHS
    RHS1      R0        -3817
    RHS1      R1        -3408
    RHS1      R2        2137
BOUNDS
 UP BND1      I0(3)     1
 UP BND1      I1(3)     1
 UP BND1      I2(3)     1
 UP BND1      I3(3)     1
 UP BND1      I4(3)     1
 UP BND1      I5(3)     1
 UP BND1      I6(3)     1
 UP BND1      I7(3)     1
 UP BND1      I8(3)     1
 UP BND1      I9(3)     1
 LI BND1      I10(1)    0
ENDATA
